9105189710012472658502,8,1,2,02,12,1,2,012,5,1,2,09,5,1,2,03,11,1,2,05,7,1,2,01,1,1,2,013,4,1,2,010,8,1,2,08,5,1,2,08,10,1,2,02,15,1,2,011,2,1,2,04,14,1,2,08,5,1,2,012,1,1,2,04,12,1,2,03,11,1,2,010,10,1,2,03,7,1,2,014,12,1,2,09,2,1,2,015,11,1,2,014,3,1,2,04,13,1,2,06,2,1,2,02,14,1,2,04,4,1,2,08,4,1,2,015,3,1,2,013,6,1,2,01,4,1,2,015,13,1,2,014,7,1,2,05,15,1,2,015,14,1,2,07,7,1,2,02,7,1,2,03,7,1,2,05,15,1,2,011,13,1,2,04,9,1,2,012,5,1,2,015,4,1,2,07,15,1,2,04,2,1,2,011,2,1,2,013,1,1,2,015,9,1,2,05,7,1,2,0